#######################################
### Exact MIP solver for the HHCRSP ###
#######################################
-- Instance file: new-instances/HHCRSP_300_60_88_1.0_R_RC.txt
-- Max threads: 4
-- Time limit: 999999 seconds
-- Use initial solution: No
Trivial flow violations prevented generating 1185598 variables.
Version identifier: 20.1.0.0 | 2020-11-10 | 9bedb6d68
CPXPARAM_Threads                                 4
CPXPARAM_TimeLimit                               999999
Parallel mode: deterministic, using up to 4 threads for concurrent optimization:
 * Starting dual Simplex on 1 thread...
 * Starting Barrier on 3 threads...
Tried aggregator 1 time.
LP Presolve eliminated 45726 rows and 10050 columns.
Reduced LP has 1202882 rows, 1141862 columns, and 27114065 nonzeros.
Presolve time = 29.42 sec. (5966.61 ticks)
Symmetry aggregator did 1929003 additional substitutions.
Initializing dual steep norms . . .

Iteration log . . .
Iteration:     1   Dual objective     =             0.333333
Iteration:  1387   Dual objective     =           392.333333

Dual crossover.
  Dual:  Fixing 2103 variables.
     2102 DMoves:  Infeasibility  1.36557432e-12  Objective  3.92666667e+02
        0 DMoves:  Infeasibility  5.36543032e-13  Objective  3.92666667e+02
  Dual:  Pushed 70, exchanged 2033.
  Primal:  Fixing 1139 variables.
     1138 PMoves:  Infeasibility  1.66533454e-16  Objective  3.92666667e+02
        0 PMoves:  Infeasibility  3.33066907e-16  Objective  3.92666667e+02
  Primal:  Pushed 978, exchanged 161.

Dual simplex solved model.


Solution status from MIP model:
-- Processing time: 49.217 sec.
-- Memory used: 1039.75 MB
-- Best bound: inf
-- Obj value: 392.667
-- Gap: inf%
-- Total distance: 1178
-- Total tardiness: 0
-- Largest tardiness: 0
